(set-info :Origin "This instance was generated by: BanditFuzz-- an RL fuzzer for SMT solvers" )
(set-info :Author "Joe Scott, Fed Mora, Vijay Ganesh" )
(set-info :Contact "Joe Scott, joseph.scott@uwaterloo.ca")
(set-logic QF_BV)
(declare-const bool_0 Bool)
(declare-const bool_1 Bool)
(declare-const bool_2 Bool)
(declare-const bool_3 Bool)
(declare-const bool_4 Bool)
(declare-const bv_0 (_ BitVec 32))
(declare-const bv_1 (_ BitVec 32))
(declare-const bv_2 (_ BitVec 32))
(declare-const bv_3 (_ BitVec 32))
(declare-const bv_4 (_ BitVec 32))
(assert (bvule (bvmul (bvurem #x4cbd2fe7  #x269051e0 ) (bvudiv #x417da129  #xc763b0d7 )) (bvxnor (bvudiv #x7dbc5eff  #x0d6a7a51 ) (bvlshr #xb2684932  bv_2))))
(assert (not (bvsle (bvsmod bv_3 #xf371cb58 ) (bvxor bv_1 #xbe669cb6 ))))
(assert (not (or (bvsge #x063fc64b  bv_2) (bvsle #xb66c9dd2  #x03691820 ))))
(assert (bvult (bvadd (bvor bv_1 #xa03489df ) (bvnor #x38d6ff06  #xd8633608 )) (bvxor (bvsdiv bv_4 bv_1) (bvnor bv_0 #x637e7e78 ))))
(assert (or (=> (bvsgt bv_3 bv_0) (=> false false)) (bvugt (bvsdiv #x4d13f0c5  bv_1) (bvsmod bv_4 bv_2))))
(check-sat)
(exit)
